(set-info :smt-lib-version 2.6)
(set-info :category "crafted")
(set-logic QF_FF)
(define-sort FF0 () (_ FiniteField 52435875175126190479447740508185965837690552500527637822603658699938581184513))
(declare-fun _68_alt () FF0)
(declare-fun _67_alt () FF0)
(declare-fun _10_alt () FF0)
(declare-fun _66_alt () FF0)
(declare-fun _11_alt () FF0)
(declare-fun _65_alt () FF0)
(declare-fun _41_alt () FF0)
(declare-fun _64_alt () FF0)
(declare-fun _42_alt () FF0)
(declare-fun _63_alt () FF0)
(declare-fun _0_alt () FF0)
(declare-fun _62_alt () FF0)
(declare-fun _54_alt () FF0)
(declare-fun _9_alt () FF0)
(declare-fun _61_alt () FF0)
(declare-fun _3_alt () FF0)
(declare-fun _60_alt () FF0)
(declare-fun _5_alt () FF0)
(declare-fun _59_alt () FF0)
(declare-fun _4_alt () FF0)
(declare-fun _58_alt () FF0)
(declare-fun _57_alt () FF0)
(declare-fun _8_alt () FF0)
(declare-fun _56_alt () FF0)
(declare-fun _7_alt () FF0)
(declare-fun _55_alt () FF0)
(declare-fun _1_alt () FF0)
(declare-fun _30_alt () FF0)
(declare-fun _45_alt () FF0)
(declare-fun _53_alt () FF0)
(declare-fun _52_alt () FF0)
(declare-fun _51_alt () FF0)
(declare-fun _33_alt () FF0)
(declare-fun _50_alt () FF0)
(declare-fun _49_alt () FF0)
(declare-fun _48_alt () FF0)
(declare-fun _6_alt () FF0)
(declare-fun _39_alt () FF0)
(declare-fun _38_alt () FF0)
(declare-fun _2_alt () FF0)
(declare-fun _32_alt () FF0)
(declare-fun _31_alt () FF0)
(declare-fun _29_alt () FF0)
(declare-fun _28_alt () FF0)
(declare-fun _27_alt () FF0)
(declare-fun _26_alt () FF0)
(declare-fun _25_alt () FF0)
(declare-fun _24_alt () FF0)
(declare-fun _23_alt () FF0)
(declare-fun _22_alt () FF0)
(declare-fun _21_alt () FF0)
(declare-fun _20_alt () FF0)
(declare-fun _19_alt () FF0)
(declare-fun _18_alt () FF0)
(declare-fun _17_alt () FF0)
(declare-fun _16_alt () FF0)
(declare-fun _15_alt () FF0)
(declare-fun _14_alt () FF0)
(declare-fun _13_alt () FF0)
(declare-fun _68 () FF0)
(declare-fun _67 () FF0)
(declare-fun _10 () FF0)
(declare-fun _66 () FF0)
(declare-fun _11 () FF0)
(declare-fun _65 () FF0)
(declare-fun _41 () FF0)
(declare-fun _64 () FF0)
(declare-fun _42 () FF0)
(declare-fun _63 () FF0)
(declare-fun _0 () FF0)
(declare-fun _62 () FF0)
(declare-fun _54 () FF0)
(declare-fun _9 () FF0)
(declare-fun _61 () FF0)
(declare-fun _3 () FF0)
(declare-fun _60 () FF0)
(declare-fun _5 () FF0)
(declare-fun _59 () FF0)
(declare-fun _4 () FF0)
(declare-fun _58 () FF0)
(declare-fun _57 () FF0)
(declare-fun _8 () FF0)
(declare-fun _56 () FF0)
(declare-fun _7 () FF0)
(declare-fun _55 () FF0)
(declare-fun _1 () FF0)
(declare-fun _30 () FF0)
(declare-fun _45 () FF0)
(declare-fun _53 () FF0)
(declare-fun _52 () FF0)
(declare-fun _51 () FF0)
(declare-fun _33 () FF0)
(declare-fun _50 () FF0)
(declare-fun _49 () FF0)
(declare-fun _48 () FF0)
(declare-fun _6 () FF0)
(declare-fun _39 () FF0)
(declare-fun _38 () FF0)
(declare-fun _2 () FF0)
(declare-fun _32 () FF0)
(declare-fun _31 () FF0)
(declare-fun _29 () FF0)
(declare-fun _28 () FF0)
(declare-fun _27 () FF0)
(declare-fun _26 () FF0)
(declare-fun _25 () FF0)
(declare-fun _24 () FF0)
(declare-fun _23 () FF0)
(declare-fun _22 () FF0)
(declare-fun _21 () FF0)
(declare-fun _20 () FF0)
(declare-fun _19 () FF0)
(declare-fun _18 () FF0)
(declare-fun _17 () FF0)
(declare-fun _16 () FF0)
(declare-fun _15 () FF0)
(declare-fun _14 () FF0)
(declare-fun _13 () FF0)
(declare-fun out_alt () FF0)
(declare-fun out () FF0)
(assert 
  (let ((let0 (as ff52435875175126190479447740508185965837690552500527637822603658699938581184512 FF0)))
  (let ((let1 _68_alt))
  (let ((let2 (ff.mul let1 let0)))
  (let ((let3 _67_alt))
  (let ((let4 _10_alt))
  (let ((let5 (ff.add let4 let3 let2)))
  (let ((let6 (ff.mul let3 let4)))
  (let ((let7 (= let6 let5)))
  (let ((let8 (as ff1 FF0)))
  (let ((let9 (ff.mul let3 let0)))
  (let ((let10 _66_alt))
  (let ((let11 _11_alt))
  (let ((let12 (ff.mul let11 let0)))
  (let ((let13 (ff.add let12 let10 let9 let8)))
  (let ((let14 (ff.add let12 let8)))
  (let ((let15 (ff.mul let10 let14)))
  (let ((let16 (= let15 let13)))
  (let ((let17 (ff.mul let10 let0)))
  (let ((let18 _65_alt))
  (let ((let19 _41_alt))
  (let ((let20 (ff.add let19 let18 let17)))
  (let ((let21 (ff.mul let18 let19)))
  (let ((let22 (= let21 let20)))
  (let ((let23 (ff.mul let18 let0)))
  (let ((let24 _64_alt))
  (let ((let25 _42_alt))
  (let ((let26 (ff.mul let25 let0)))
  (let ((let27 (ff.add let26 let24 let23 let8)))
  (let ((let28 (ff.add let26 let8)))
  (let ((let29 (ff.mul let24 let28)))
  (let ((let30 (= let29 let27)))
  (let ((let31 (ff.mul let24 let0)))
  (let ((let32 _63_alt))
  (let ((let33 _0_alt))
  (let ((let34 (ff.mul let33 let0)))
  (let ((let35 (ff.add let34 let32 let31 let8)))
  (let ((let36 (ff.add let34 let8)))
  (let ((let37 (ff.mul let32 let36)))
  (let ((let38 (= let37 let35)))
  (let ((let39 (ff.mul let32 let0)))
  (let ((let40 _62_alt))
  (let ((let41 _54_alt))
  (let ((let42 (ff.add let41 let40 let39)))
  (let ((let43 (ff.mul let40 let41)))
  (let ((let44 (= let43 let42)))
  (let ((let45 _9_alt))
  (let ((let46 _61_alt))
  (let ((let47 (ff.mul let46 let45)))
  (let ((let48 (= let47 let40)))
  (let ((let49 _3_alt))
  (let ((let50 _60_alt))
  (let ((let51 (ff.mul let50 let49)))
  (let ((let52 (= let51 let46)))
  (let ((let53 _5_alt))
  (let ((let54 _59_alt))
  (let ((let55 (ff.mul let54 let53)))
  (let ((let56 (= let55 let50)))
  (let ((let57 _4_alt))
  (let ((let58 _58_alt))
  (let ((let59 (ff.mul let58 let57)))
  (let ((let60 (= let59 let54)))
  (let ((let61 _57_alt))
  (let ((let62 (ff.mul let61 let45)))
  (let ((let63 (= let62 let58)))
  (let ((let64 _8_alt))
  (let ((let65 _56_alt))
  (let ((let66 (ff.mul let65 let64)))
  (let ((let67 (= let66 let61)))
  (let ((let68 _7_alt))
  (let ((let69 _55_alt))
  (let ((let70 (ff.mul let69 let68)))
  (let ((let71 (= let70 let65)))
  (let ((let72 _1_alt))
  (let ((let73 _30_alt))
  (let ((let74 (ff.mul let73 let72)))
  (let ((let75 (= let74 let69)))
  (let ((let76 _45_alt))
  (let ((let77 (ff.mul let76 let0)))
  (let ((let78 (ff.add let77 let8)))
  (let ((let79 _53_alt))
  (let ((let80 (ff.mul let79 let78)))
  (let ((let81 (= let80 let41)))
  (let ((let82 _52_alt))
  (let ((let83 (ff.mul let82 let78)))
  (let ((let84 (= let83 let79)))
  (let ((let85 _51_alt))
  (let ((let86 (ff.mul let85 let57)))
  (let ((let87 (= let86 let82)))
  (let ((let88 _33_alt))
  (let ((let89 _50_alt))
  (let ((let90 (ff.mul let89 let88)))
  (let ((let91 (= let90 let85)))
  (let ((let92 _49_alt))
  (let ((let93 (ff.mul let92 let33)))
  (let ((let94 (= let93 let89)))
  (let ((let95 _48_alt))
  (let ((let96 (ff.mul let95 let53)))
  (let ((let97 (= let96 let92)))
  (let ((let98 _6_alt))
  (let ((let99 (ff.mul let98 let53)))
  (let ((let100 (= let99 let95)))
  (let ((let101 (ff.mul let73 let0)))
  (let ((let102 (ff.add let68 let101)))
  (let ((let103 (ff.mul let102 let102)))
  (let ((let104 (= let103 let76)))
  (let ((let105 (ff.mul let64 let72)))
  (let ((let106 (= let105 let25)))
  (let ((let107 (ff.mul let19 let0)))
  (let ((let108 _39_alt))
  (let ((let109 (ff.mul let108 let0)))
  (let ((let110 _38_alt))
  (let ((let111 (ff.mul let110 let0)))
  (let ((let112 (ff.add let88 let111 let109 let107 let8)))
  (let ((let113 (ff.add let111 let109 let8)))
  (let ((let114 (ff.mul let113 let88)))
  (let ((let115 (= let114 let112)))
  (let ((let116 _2_alt))
  (let ((let117 (ff.mul let116 let0)))
  (let ((let118 (ff.add let117 let8)))
  (let ((let119 (ff.mul let118 let88)))
  (let ((let120 (= let119 let108)))
  (let ((let121 (ff.mul let53 let0)))
  (let ((let122 (ff.add let121 let8)))
  (let ((let123 (ff.mul let116 let122)))
  (let ((let124 (= let123 let110)))
  (let ((let125 _32_alt))
  (let ((let126 (ff.mul let125 let98)))
  (let ((let127 (= let126 let88)))
  (let ((let128 _31_alt))
  (let ((let129 (ff.mul let128 let128)))
  (let ((let130 (= let129 let125)))
  (let ((let131 (ff.mul let128 let0)))
  (let ((let132 (ff.add let49 let73 let131)))
  (let ((let133 (ff.mul let73 let49)))
  (let ((let134 (= let133 let132)))
  (let ((let135 _29_alt))
  (let ((let136 (ff.add let116 let135 let101)))
  (let ((let137 (ff.mul let135 let116)))
  (let ((let138 (= let137 let136)))
  (let ((let139 (ff.mul let135 let0)))
  (let ((let140 _28_alt))
  (let ((let141 (ff.add let33 let140 let139)))
  (let ((let142 (ff.mul let140 let33)))
  (let ((let143 (= let142 let141)))
  (let ((let144 (ff.mul let140 let0)))
  (let ((let145 _27_alt))
  (let ((let146 (ff.add let64 let145 let144)))
  (let ((let147 (ff.mul let145 let64)))
  (let ((let148 (= let147 let146)))
  (let ((let149 (ff.mul let145 let0)))
  (let ((let150 _26_alt))
  (let ((let151 (ff.add let57 let150 let149)))
  (let ((let152 (ff.mul let150 let57)))
  (let ((let153 (= let152 let151)))
  (let ((let154 (ff.mul let150 let0)))
  (let ((let155 _25_alt))
  (let ((let156 (ff.add let53 let155 let154)))
  (let ((let157 (ff.mul let155 let53)))
  (let ((let158 (= let157 let156)))
  (let ((let159 (ff.mul let155 let0)))
  (let ((let160 _24_alt))
  (let ((let161 (ff.add let72 let160 let159)))
  (let ((let162 (ff.mul let160 let72)))
  (let ((let163 (= let162 let161)))
  (let ((let164 (ff.mul let160 let0)))
  (let ((let165 _23_alt))
  (let ((let166 (ff.add let49 let165 let164)))
  (let ((let167 (ff.mul let165 let49)))
  (let ((let168 (= let167 let166)))
  (let ((let169 (ff.mul let165 let0)))
  (let ((let170 _22_alt))
  (let ((let171 (ff.add let98 let170 let169)))
  (let ((let172 (ff.mul let170 let98)))
  (let ((let173 (= let172 let171)))
  (let ((let174 (ff.mul let170 let0)))
  (let ((let175 _21_alt))
  (let ((let176 (ff.add let33 let175 let174)))
  (let ((let177 (ff.mul let175 let33)))
  (let ((let178 (= let177 let176)))
  (let ((let179 (ff.mul let175 let0)))
  (let ((let180 _20_alt))
  (let ((let181 (ff.add let116 let180 let179)))
  (let ((let182 (ff.mul let180 let116)))
  (let ((let183 (= let182 let181)))
  (let ((let184 (ff.mul let180 let0)))
  (let ((let185 _19_alt))
  (let ((let186 (ff.add let98 let185 let184)))
  (let ((let187 (ff.mul let185 let98)))
  (let ((let188 (= let187 let186)))
  (let ((let189 (ff.mul let185 let0)))
  (let ((let190 _18_alt))
  (let ((let191 (ff.add let57 let190 let189)))
  (let ((let192 (ff.mul let190 let57)))
  (let ((let193 (= let192 let191)))
  (let ((let194 (ff.mul let190 let0)))
  (let ((let195 _17_alt))
  (let ((let196 (ff.add let45 let195 let194)))
  (let ((let197 (ff.mul let195 let45)))
  (let ((let198 (= let197 let196)))
  (let ((let199 (ff.mul let195 let0)))
  (let ((let200 _16_alt))
  (let ((let201 (ff.add let116 let200 let199)))
  (let ((let202 (ff.mul let200 let116)))
  (let ((let203 (= let202 let201)))
  (let ((let204 (ff.mul let200 let0)))
  (let ((let205 _15_alt))
  (let ((let206 (ff.add let68 let205 let204)))
  (let ((let207 (ff.mul let205 let68)))
  (let ((let208 (= let207 let206)))
  (let ((let209 (ff.mul let205 let0)))
  (let ((let210 _14_alt))
  (let ((let211 (ff.add let49 let210 let209)))
  (let ((let212 (ff.mul let210 let49)))
  (let ((let213 (= let212 let211)))
  (let ((let214 (ff.mul let210 let0)))
  (let ((let215 _13_alt))
  (let ((let216 (ff.add let64 let215 let214)))
  (let ((let217 (ff.mul let215 let64)))
  (let ((let218 (= let217 let216)))
  (let ((let219 (ff.mul let215 let0)))
  (let ((let220 (ff.add let33 let72 let219)))
  (let ((let221 (ff.mul let72 let33)))
  (let ((let222 (= let221 let220)))
  (let ((let223 (ff.add let121 let68)))
  (let ((let224 (ff.mul let223 let223)))
  (let ((let225 (= let224 let11)))
  (let ((let226 (ff.mul let49 let45)))
  (let ((let227 (= let226 let4)))
  (let ((let228 (ff.mul let45 let45)))
  (let ((let229 (= let228 let45)))
  (let ((let230 (ff.mul let64 let64)))
  (let ((let231 (= let230 let64)))
  (let ((let232 (ff.mul let68 let68)))
  (let ((let233 (= let232 let68)))
  (let ((let234 (ff.mul let98 let98)))
  (let ((let235 (= let234 let98)))
  (let ((let236 (ff.mul let53 let53)))
  (let ((let237 (= let236 let53)))
  (let ((let238 (ff.mul let57 let57)))
  (let ((let239 (= let238 let57)))
  (let ((let240 (ff.mul let49 let49)))
  (let ((let241 (= let240 let49)))
  (let ((let242 (ff.mul let116 let116)))
  (let ((let243 (= let242 let116)))
  (let ((let244 (ff.mul let72 let72)))
  (let ((let245 (= let244 let72)))
  (let ((let246 (ff.mul let33 let33)))
  (let ((let247 (= let246 let33)))
  (let ((let248 (and let247 let245 let243 let241 let239 let237 let235 let233 let231 let229 let227 let225 let222 let218 let213 let208 let203 let198 let193 let188 let183 let178 let173 let168 let163 let158 let153 let148 let143 let138 let134 let130 let127 let124 let120 let115 let106 let104 let100 let97 let94 let91 let87 let84 let81 let75 let71 let67 let63 let60 let56 let52 let48 let44 let38 let30 let22 let16 let7)))
  (let ((let249 _68))
  (let ((let250 (ff.mul let249 let0)))
  (let ((let251 _67))
  (let ((let252 _10))
  (let ((let253 (ff.add let252 let251 let250)))
  (let ((let254 (ff.mul let251 let252)))
  (let ((let255 (= let254 let253)))
  (let ((let256 (ff.mul let251 let0)))
  (let ((let257 _66))
  (let ((let258 _11))
  (let ((let259 (ff.mul let258 let0)))
  (let ((let260 (ff.add let259 let257 let256 let8)))
  (let ((let261 (ff.add let259 let8)))
  (let ((let262 (ff.mul let257 let261)))
  (let ((let263 (= let262 let260)))
  (let ((let264 (ff.mul let257 let0)))
  (let ((let265 _65))
  (let ((let266 _41))
  (let ((let267 (ff.add let266 let265 let264)))
  (let ((let268 (ff.mul let265 let266)))
  (let ((let269 (= let268 let267)))
  (let ((let270 (ff.mul let265 let0)))
  (let ((let271 _64))
  (let ((let272 _42))
  (let ((let273 (ff.mul let272 let0)))
  (let ((let274 (ff.add let273 let271 let270 let8)))
  (let ((let275 (ff.add let273 let8)))
  (let ((let276 (ff.mul let271 let275)))
  (let ((let277 (= let276 let274)))
  (let ((let278 (ff.mul let271 let0)))
  (let ((let279 _63))
  (let ((let280 _0))
  (let ((let281 (ff.mul let280 let0)))
  (let ((let282 (ff.add let281 let279 let278 let8)))
  (let ((let283 (ff.add let281 let8)))
  (let ((let284 (ff.mul let279 let283)))
  (let ((let285 (= let284 let282)))
  (let ((let286 (ff.mul let279 let0)))
  (let ((let287 _62))
  (let ((let288 _54))
  (let ((let289 (ff.add let288 let287 let286)))
  (let ((let290 (ff.mul let287 let288)))
  (let ((let291 (= let290 let289)))
  (let ((let292 _9))
  (let ((let293 _61))
  (let ((let294 (ff.mul let293 let292)))
  (let ((let295 (= let294 let287)))
  (let ((let296 _3))
  (let ((let297 _60))
  (let ((let298 (ff.mul let297 let296)))
  (let ((let299 (= let298 let293)))
  (let ((let300 _5))
  (let ((let301 _59))
  (let ((let302 (ff.mul let301 let300)))
  (let ((let303 (= let302 let297)))
  (let ((let304 _4))
  (let ((let305 _58))
  (let ((let306 (ff.mul let305 let304)))
  (let ((let307 (= let306 let301)))
  (let ((let308 _57))
  (let ((let309 (ff.mul let308 let292)))
  (let ((let310 (= let309 let305)))
  (let ((let311 _8))
  (let ((let312 _56))
  (let ((let313 (ff.mul let312 let311)))
  (let ((let314 (= let313 let308)))
  (let ((let315 _7))
  (let ((let316 _55))
  (let ((let317 (ff.mul let316 let315)))
  (let ((let318 (= let317 let312)))
  (let ((let319 _1))
  (let ((let320 _30))
  (let ((let321 (ff.mul let320 let319)))
  (let ((let322 (= let321 let316)))
  (let ((let323 _45))
  (let ((let324 (ff.mul let323 let0)))
  (let ((let325 (ff.add let324 let8)))
  (let ((let326 _53))
  (let ((let327 (ff.mul let326 let325)))
  (let ((let328 (= let327 let288)))
  (let ((let329 _52))
  (let ((let330 (ff.mul let329 let325)))
  (let ((let331 (= let330 let326)))
  (let ((let332 _51))
  (let ((let333 (ff.mul let332 let304)))
  (let ((let334 (= let333 let329)))
  (let ((let335 _33))
  (let ((let336 _50))
  (let ((let337 (ff.mul let336 let335)))
  (let ((let338 (= let337 let332)))
  (let ((let339 _49))
  (let ((let340 (ff.mul let339 let280)))
  (let ((let341 (= let340 let336)))
  (let ((let342 _48))
  (let ((let343 (ff.mul let342 let300)))
  (let ((let344 (= let343 let339)))
  (let ((let345 _6))
  (let ((let346 (ff.mul let345 let300)))
  (let ((let347 (= let346 let342)))
  (let ((let348 (ff.mul let320 let0)))
  (let ((let349 (ff.add let315 let348)))
  (let ((let350 (ff.mul let349 let349)))
  (let ((let351 (= let350 let323)))
  (let ((let352 (ff.mul let311 let319)))
  (let ((let353 (= let352 let272)))
  (let ((let354 (ff.mul let266 let0)))
  (let ((let355 _39))
  (let ((let356 (ff.mul let355 let0)))
  (let ((let357 _38))
  (let ((let358 (ff.mul let357 let0)))
  (let ((let359 (ff.add let335 let358 let356 let354 let8)))
  (let ((let360 (ff.add let358 let356 let8)))
  (let ((let361 (ff.mul let360 let335)))
  (let ((let362 (= let361 let359)))
  (let ((let363 _2))
  (let ((let364 (ff.mul let363 let0)))
  (let ((let365 (ff.add let364 let8)))
  (let ((let366 (ff.mul let365 let335)))
  (let ((let367 (= let366 let355)))
  (let ((let368 (ff.mul let300 let0)))
  (let ((let369 (ff.add let368 let8)))
  (let ((let370 (ff.mul let363 let369)))
  (let ((let371 (= let370 let357)))
  (let ((let372 _32))
  (let ((let373 (ff.mul let372 let345)))
  (let ((let374 (= let373 let335)))
  (let ((let375 _31))
  (let ((let376 (ff.mul let375 let375)))
  (let ((let377 (= let376 let372)))
  (let ((let378 (ff.mul let375 let0)))
  (let ((let379 (ff.add let296 let320 let378)))
  (let ((let380 (ff.mul let320 let296)))
  (let ((let381 (= let380 let379)))
  (let ((let382 _29))
  (let ((let383 (ff.add let363 let382 let348)))
  (let ((let384 (ff.mul let382 let363)))
  (let ((let385 (= let384 let383)))
  (let ((let386 (ff.mul let382 let0)))
  (let ((let387 _28))
  (let ((let388 (ff.add let280 let387 let386)))
  (let ((let389 (ff.mul let387 let280)))
  (let ((let390 (= let389 let388)))
  (let ((let391 (ff.mul let387 let0)))
  (let ((let392 _27))
  (let ((let393 (ff.add let311 let392 let391)))
  (let ((let394 (ff.mul let392 let311)))
  (let ((let395 (= let394 let393)))
  (let ((let396 (ff.mul let392 let0)))
  (let ((let397 _26))
  (let ((let398 (ff.add let304 let397 let396)))
  (let ((let399 (ff.mul let397 let304)))
  (let ((let400 (= let399 let398)))
  (let ((let401 (ff.mul let397 let0)))
  (let ((let402 _25))
  (let ((let403 (ff.add let300 let402 let401)))
  (let ((let404 (ff.mul let402 let300)))
  (let ((let405 (= let404 let403)))
  (let ((let406 (ff.mul let402 let0)))
  (let ((let407 _24))
  (let ((let408 (ff.add let319 let407 let406)))
  (let ((let409 (ff.mul let407 let319)))
  (let ((let410 (= let409 let408)))
  (let ((let411 (ff.mul let407 let0)))
  (let ((let412 _23))
  (let ((let413 (ff.add let296 let412 let411)))
  (let ((let414 (ff.mul let412 let296)))
  (let ((let415 (= let414 let413)))
  (let ((let416 (ff.mul let412 let0)))
  (let ((let417 _22))
  (let ((let418 (ff.add let345 let417 let416)))
  (let ((let419 (ff.mul let417 let345)))
  (let ((let420 (= let419 let418)))
  (let ((let421 (ff.mul let417 let0)))
  (let ((let422 _21))
  (let ((let423 (ff.add let280 let422 let421)))
  (let ((let424 (ff.mul let422 let280)))
  (let ((let425 (= let424 let423)))
  (let ((let426 (ff.mul let422 let0)))
  (let ((let427 _20))
  (let ((let428 (ff.add let363 let427 let426)))
  (let ((let429 (ff.mul let427 let363)))
  (let ((let430 (= let429 let428)))
  (let ((let431 (ff.mul let427 let0)))
  (let ((let432 _19))
  (let ((let433 (ff.add let345 let432 let431)))
  (let ((let434 (ff.mul let432 let345)))
  (let ((let435 (= let434 let433)))
  (let ((let436 (ff.mul let432 let0)))
  (let ((let437 _18))
  (let ((let438 (ff.add let304 let437 let436)))
  (let ((let439 (ff.mul let437 let304)))
  (let ((let440 (= let439 let438)))
  (let ((let441 (ff.mul let437 let0)))
  (let ((let442 _17))
  (let ((let443 (ff.add let292 let442 let441)))
  (let ((let444 (ff.mul let442 let292)))
  (let ((let445 (= let444 let443)))
  (let ((let446 (ff.mul let442 let0)))
  (let ((let447 _16))
  (let ((let448 (ff.add let363 let447 let446)))
  (let ((let449 (ff.mul let447 let363)))
  (let ((let450 (= let449 let448)))
  (let ((let451 (ff.mul let447 let0)))
  (let ((let452 _15))
  (let ((let453 (ff.add let315 let452 let451)))
  (let ((let454 (ff.mul let452 let315)))
  (let ((let455 (= let454 let453)))
  (let ((let456 (ff.mul let452 let0)))
  (let ((let457 _14))
  (let ((let458 (ff.add let296 let457 let456)))
  (let ((let459 (ff.mul let457 let296)))
  (let ((let460 (= let459 let458)))
  (let ((let461 (ff.mul let457 let0)))
  (let ((let462 _13))
  (let ((let463 (ff.add let311 let462 let461)))
  (let ((let464 (ff.mul let462 let311)))
  (let ((let465 (= let464 let463)))
  (let ((let466 (ff.mul let462 let0)))
  (let ((let467 (ff.add let280 let319 let466)))
  (let ((let468 (ff.mul let319 let280)))
  (let ((let469 (= let468 let467)))
  (let ((let470 (ff.add let368 let315)))
  (let ((let471 (ff.mul let470 let470)))
  (let ((let472 (= let471 let258)))
  (let ((let473 (ff.mul let296 let292)))
  (let ((let474 (= let473 let252)))
  (let ((let475 (ff.mul let292 let292)))
  (let ((let476 (= let475 let292)))
  (let ((let477 (ff.mul let311 let311)))
  (let ((let478 (= let477 let311)))
  (let ((let479 (ff.mul let315 let315)))
  (let ((let480 (= let479 let315)))
  (let ((let481 (ff.mul let345 let345)))
  (let ((let482 (= let481 let345)))
  (let ((let483 (ff.mul let300 let300)))
  (let ((let484 (= let483 let300)))
  (let ((let485 (ff.mul let304 let304)))
  (let ((let486 (= let485 let304)))
  (let ((let487 (ff.mul let296 let296)))
  (let ((let488 (= let487 let296)))
  (let ((let489 (ff.mul let363 let363)))
  (let ((let490 (= let489 let363)))
  (let ((let491 (ff.mul let319 let319)))
  (let ((let492 (= let491 let319)))
  (let ((let493 (ff.mul let280 let280)))
  (let ((let494 (= let493 let280)))
  (let ((let495 (and let494 let492 let490 let488 let486 let484 let482 let480 let478 let476 let474 let472 let469 let465 let460 let455 let450 let445 let440 let435 let430 let425 let420 let415 let410 let405 let400 let395 let390 let385 let381 let377 let374 let371 let367 let362 let353 let351 let347 let344 let341 let338 let334 let331 let328 let322 let318 let314 let310 let307 let303 let299 let295 let291 let285 let277 let269 let263 let255)))
  (let ((let496 out_alt))
  (let ((let497 out))
  (let ((let498 (= let497 let496)))
  (let ((let499 (not let498)))
  (let ((let500 (= let304 let57)))
  (let ((let501 (= let300 let53)))
  (let ((let502 (= let363 let116)))
  (let ((let503 (= let315 let68)))
  (let ((let504 (= let280 let33)))
  (let ((let505 (= let296 let49)))
  (let ((let506 (= let319 let72)))
  (let ((let507 (= let292 let45)))
  (let ((let508 (= let311 let64)))
  (let ((let509 (= let345 let98)))
  (let ((let510 (and let509 let508 let507 let506 let505 let504 let503 let502 let501 let500)))
  (let ((let511 (and let510 let499 let495 let248)))
  let511
))))))))))))))))))))))))))))))))))))))))))))))))))))))))))))))))))))))))))))))))))))))))))))))))))))))))))))))))))))))))))))))))))))))))))))))))))))))))))))))))))))))))))))))))))))))))))))))))))))))))))))))))))))))))))))))))))))))))))))))))))))))))))))))))))))))))))))))))))))))))))))))))))))))))))))))))))))))))))))))))))))))))))))))))))))))))))))))))))))))))))))))))))))))))))))))))))))))))))))))))))))))))))))))))))))))))))))))))))))))))))))))))))))))))))))))))))))))))))))))))))))))))))))))))))))))))))))))))
)
(check-sat)
